solution status: optimal solution found
objective value:                     134995.812214261
d11(0,0)                                            1 	(obj:0)
d11(1,1)                                            1 	(obj:0)
d11(1,2)                                            1 	(obj:0)
d11(1,3)                                            1 	(obj:0)
d11(2,4)                                            1 	(obj:0)
d11(2,10)                                           1 	(obj:0)
d11(3,13)                                           1 	(obj:0)
d11(3,14)                                           1 	(obj:0)
d11(3,16)                                           1 	(obj:0)
d11(3,17)                                           1 	(obj:0)
d11(3,19)                                           1 	(obj:0)
d11(3,20)                                           1 	(obj:0)
d11(3,22)                                           1 	(obj:0)
d11(3,23)                                           1 	(obj:0)
d11(3,25)                                           1 	(obj:0)
d11(3,26)                                           1 	(obj:0)
d11(3,28)                                           1 	(obj:0)
d11(3,31)                                           1 	(obj:0)
d11(3,32)                                           1 	(obj:0)
d11(3,34)                                           1 	(obj:0)
d11(3,35)                                           1 	(obj:0)
d11(3,37)                                           1 	(obj:0)
d11(3,38)                                           1 	(obj:0)
d12(2,5)                                            1 	(obj:0)
d12(2,6)                                            1 	(obj:0)
d12(2,8)                                            1 	(obj:0)
d12(2,9)                                            1 	(obj:0)
d12(2,11)                                           1 	(obj:0)
d12(2,12)                                           1 	(obj:0)
d12(3,15)                                           1 	(obj:0)
d12(3,18)                                           1 	(obj:0)
d12(3,21)                                           1 	(obj:0)
d12(3,24)                                           1 	(obj:0)
d12(3,27)                                           1 	(obj:0)
d12(3,30)                                           1 	(obj:0)
d12(3,33)                                           1 	(obj:0)
d12(3,36)                                           1 	(obj:0)
d12(3,39)                                           1 	(obj:0)
d21(1,1)                                            1 	(obj:0)
d21(2,4)                                            1 	(obj:0)
d21(2,5)                                            1 	(obj:0)
d21(3,13)                                           1 	(obj:0)
d21(3,14)                                           1 	(obj:0)
d21(3,15)                                           1 	(obj:0)
d21(3,16)                                           1 	(obj:0)
d21(3,17)                                           1 	(obj:0)
d21(3,19)                                           1 	(obj:0)
d21(3,22)                                           1 	(obj:0)
d21(3,23)                                           1 	(obj:0)
d21(3,25)                                           1 	(obj:0)
d21(3,31)                                           1 	(obj:0)
y2(3,24)                             960.592982999986 	(obj:0)
y2(3,27)                             960.592982999986 	(obj:0)
y2(3,30)                             960.592982999986 	(obj:0)
y2(3,33)                             960.592982999986 	(obj:0)
y2(3,36)                             960.592982999986 	(obj:0)
y2(3,39)                             960.592982999986 	(obj:0)
STE(1,1)                              137.23399666728 	(obj:0)
STE(0,0)                                         6300 	(obj:0)
STE(1,2)                             1134.00000000054 	(obj:0)
STE(1,3)                             2351.45220333395 	(obj:0)
STE(2,4)                            -366.766003332659 	(obj:0)
STE(2,5)                             391.895728817229 	(obj:0)
STE(2,6)                             1432.81736266727 	(obj:0)
STE(2,7)                             630.000000000545 	(obj:0)
STE(2,8)                             1388.66173215049 	(obj:0)
STE(2,9)                             2429.58336600053 	(obj:0)
STE(2,10)                            1847.45220333389 	(obj:0)
STE(2,11)                             2606.1139354839 	(obj:0)
STE(2,12)                            3647.03556933394 	(obj:0)
STE(3,13)                           -1867.53200666592 	(obj:0)
STE(3,14)                           -870.766003332659 	(obj:0)
STE(3,15)                             41.797330517328 	(obj:0)
STE(3,16)                           -1108.87027451612 	(obj:0)
STE(3,17)                           -112.104271182771 	(obj:0)
STE(3,18)                            800.459062667216 	(obj:0)
STE(3,19)                           -67.9486406660828 	(obj:0)
STE(3,20)                            928.817362667206 	(obj:0)
STE(3,21)                            1841.38069651725 	(obj:0)
STE(3,22)                           -870.766003332805 	(obj:0)
STE(3,23)                            126.000000000545 	(obj:0)
STE(3,24)                            1038.56333385053 	(obj:0)
STE(3,25)                           -112.104271182856 	(obj:0)
STE(3,26)                            884.661732150494 	(obj:0)
STE(3,27)                            1797.22506600048 	(obj:0)
STE(3,28)                            928.817362667182 	(obj:0)
STE(3,29)                            1925.58336600053 	(obj:0)
STE(3,30)                            2838.14669985052 	(obj:0)
STE(3,31)                            346.686200000537 	(obj:0)
STE(3,32)                            1343.45220333389 	(obj:0)
STE(3,33)                            2256.01553718387 	(obj:0)
STE(3,34)                            1105.34793215062 	(obj:0)
STE(3,35)                             2102.1139354839 	(obj:0)
STE(3,36)                            3014.67726933388 	(obj:0)
STE(3,37)                            2146.26956600059 	(obj:0)
STE(3,38)                            3143.03556933394 	(obj:0)
STE(3,39)                            4055.59890318392 	(obj:0)
y1(3,25)                             897.089403000015 	(obj:0)
y1(3,28)                             897.089403000015 	(obj:0)
y1(3,31)                             897.089403000015 	(obj:0)
y1(3,34)                             897.089402999951 	(obj:0)
y1(3,37)                             897.089403000015 	(obj:0)
BG(3)                                         3377.85 	(obj:10)
AVE(1)                               3199.95851117552 	(obj:0)
WB(2)                                3265.15049132519 	(obj:0)
AVE(2)                               3265.15049132519 	(obj:0)
WB(3)                                3291.35535332476 	(obj:0)
AVE(3)                               3291.35535332476 	(obj:0)
WG(1)                                3199.95851117552 	(obj:10)
BG(1)                                4459.32006025247 	(obj:10)
BG(2)                                      2462.45265 	(obj:10)
y1(1,1)                              5092.88940299945 	(obj:0)
y1(1,2)                              4195.79999999951 	(obj:0)
y1(1,3)                              3100.09301699945 	(obj:0)
y1(3,13)                             897.089402999938 	(obj:0)
y1(3,16)                             897.089403000015 	(obj:0)
y1(3,19)                             897.089403000015 	(obj:0)
y1(3,22)                             897.089403000015 	(obj:0)
y2(2,5)                              798.591296999947 	(obj:0)
y2(2,6)                              1894.29827999999 	(obj:0)
y2(2,8)                              798.591296999947 	(obj:0)
y2(2,9)                              1894.29827999999 	(obj:0)
y2(2,11)                             798.591296999947 	(obj:0)
y2(2,12)                             1894.29827999999 	(obj:0)
y2(3,15)                             960.592982999986 	(obj:0)
y2(3,18)                             960.592982999986 	(obj:0)
y2(3,21)                             960.592982999986 	(obj:0)
